r = [
0,165,146,19,136,56,58,148,125,71,64,49,74,161,58,129,93,126,136,57,156,155,131,33,133,54,0
];
p = [
0,13,14,10,10,28,9,28,13,1,7,4,9,29,7,27,3,13,10,23,11,3,14,11,13,26,0
];
e = [
0,13,18,16,1,5,2,3,7,3,5,3,12,11,13,17,6,8,20,10,18,2,1,13,5,4,0
];
d = [
0,344,299,203,317,211,239,313,287,222,228,223,240,329,239,285,272,310,316,217,311,306,312,216,304,218,345
];
d_bar = [
0,345,300,204,318,214,240,316,288,223,229,224,241,332,240,288,273,311,317,219,312,307,313,217,305,221,345
];
w = [
0,13,18,16,1,1.666666667,2,1,7,3,5,3,12,3.666666667,13,5.666666667,6,8,20,5,18,2,1,13,5,1.333333333,0
];
